sat
(:max-memory          19.98
 :memory              17.88
 :num-allocs          1604470
 :rlimit-count        23086
 :sls-arith-steps     952
 :sls-ddfw-flips      739.00
 :sls-ddfw-shifts     728.00
 :solve-eqs-elim-vars 44
 :solve-eqs-steps     812
 :time                0.03
 :total-time          0.04)
